000 000 000 000 -99 -99 000 000 -99 -99 -99 -99 -99 000 000 -99 -99 -99 -99 000 000 -99 -99 000 000 000 -99 000 -99 -99 000
-99 000 000 000 000 000 000 000 -99 -99 -99 -99 -99 000 000 000 -99 -99 -99 000 000 000 000 000 000 000 000 000 -99 -99 -99
-99 000 000 000 000 000 000 000 000 -99 -99 -99 -99 -99 000 000 000 -99 -99 -99 000 -99 000 000 000 000 000 000 000 -99 -99
000 000 000 000 000 000 000 000 000 000 -99 -99 -99 -99 000 000 -99 -99 -99 -99 -99 -99 -99 -99 000 000 000 000 000 -99 -99
000 000 000 000 000 000 000 000 000 000 -99 000 000 000 000 000 -99 -99 -99 -99 000 000 -99 -99 000 000 -99 -99 000 -99 -99
000 000 000 000 000 000 000 000 000 000 -99 000 000 -99 000 000 -99 -99 -99 -99 000 000 000 -99 -99 000 -99 -99 -99 001 001
000 000 000 000 000 000 000 000 000 000 000 -99 -99 000 000 000 000 -99 -99 -99 000 000 000 000 000 000 -99 -99 -99 -99 -99
000 000 000 000 000 000 000 000 000 -99 000 -99 -99 -99 -99 000 000 000 000 -99 000 000 000 000 000 -99 -99 -99 -99 -99 000
000 000 000 000 000 -99 000 000 000 000 000 -99 -99 -99 -99 -99 000 000 000 -99 000 -99 -99 000 000 -99 -99 -99 -99 -99 001
000 000 000 000 000 000 -99 -99 -99 000 000 -99 -99 -99 000 000 000 000 -99 -99 000 -99 -99 -99 000 000 -99 000 000 000 000
000 000 000 000 000 000 000 000 000 000 000 000 000 -99 -99 000 000 000 -99 -99 -99 -99 -99 -99 000 -99 -99 000 000 000 000
000 000 000 000 000 000 000 000 000 000 000 000 -99 -99 -99 000 000 000 -99 -99 000 -99 -99 000 000 -99 000 000 000 000 -99
000 000 000 000 000 000 000 000 000 000 000 000 000 -99 -99 000 000 000 000 -99 -99 000 -99 000 000 000 000 000 000 000 -99
000 000 000 000 000 000 000 000 -99 -99 000 000 -99 -99 -99 000 000 000 000 -99 -99 -99 -99 000 000 000 000 000 -99 -99 -99
000 000 000 000 000 000 000 000 -99 -99 -99 -99 -99 000 -99 000 000 000 000 -99 -99 000 -99 000 000 000 000 000 -99 -99 -99
000 -99 000 000 000 000 000 000 -99 -99 -99 -99 -99 000 000 000 000 000 000 -99 -99 000 -99 000 000 000 000 000 000 -99 -99
000 -99 000 000 000 000 000 000 000 -99 -99 -99 -99 000 000 000 000 000 000 -99 -99 -99 000 000 000 000 000 000 000 000 000
000 000 000 000 -99 -99 000 000 000 000 -99 -99 -99 000 000 000 000 000 -99 -99 -99 -99 000 -99 000 000 000 000 000 000 000
000 000 000 000 -99 -99 000 000 000 -99 -99 -99 -99 -99 000 000 000 000 -99 -99 -99 -99 000 -99 000 000 000 -99 -99 002 005
000 000 000 000 -99 -99 000 000 -99 -99 000 -99 001 000 000 000 000 000 000 000 -99 -99 -99 -99 -99 000 -99 -99 -99 006 010
000 000 000 000 000 000 -99 -99 000 000 -99 -99 002 002 000 000 000 000 000 000 000 000 000 -99 -99 -99 -99 -99 -99 -99 -99
000 000 000 000 000 000 -99 000 000 000 -99 -99 001 001 000 000 000 000 000 000 000 000 000 -99 -99 -99 -99 -99 -99 -99 -99
000 000 000 000 000 000 -99 000 000 000 -99 -99 001 000 000 000 000 000 000 000 000 000 000 -99 -99 -99 -99 -99 -99 -99 -99
000 000 000 000 000 000 -99 000 000 000 -99 -99 000 000 000 000 000 000 000 000 000 000 000 -99 -99 -99 -99 -99 -99 -99 000
000 000 000 000 000 -99 -99 000 000 -99 -99 -99 -99 000 000 000 000 000 000 000 000 000 000 -99 -99 -99 -99 -99 -99 -99 000
000 000 000 000 000 000 000 000 -99 -99 -99 -99 -99 000 000 000 000 000 000 000 000 000 -99 -99 -99 -99 -99 -99 -99 -99 000
000 000 000 000 000 000 000 000 -99 -99 -99 -99 -99 -99 -99 000 000 000 000 000 000 000 000 -99 -99 -99 -99 -99 -99 -99 000
000 000 -99 000 000 000 000 000 -99 -99 -99 -99 -99 000 000 000 000 000 000 000 000 000 000 -99 -99 -99 -99 -99 -99 -99 000
000 000 -99 000 000 000 000 000 000 000 000 -99 -99 000 000 000 000 000 000 000 000 000 -99 -99 -99 -99 -99 -99 -99 -99 000
000 000 000 000 000 000 000 000 000 000 000 -99 -99 000 000 000 000 000 000 000 000 000 -99 -99 -99 -99 -99 -99 -99 -99 -99
000 000 000 000 000 000 000 000 000 000 000 -99 -99 000 000 000 000 000 000 000 000 000 -99 -99 -99 -99 -99 -99 -99 -99 -99
000 000 000 000 000 000 000 000 000 000 -99 -99 -99 000 000 -99 000 000 000 000 -99 -99 -99 000 000 000 -99 -99 -99 -99 -99
000 000 000 000 000 000 000 000 000 000 -99 -99 -99 000 000 -99 000 000 000 -99 -99 -99 000 000 000 000 -99 000 -99 -99 000
000 000 000 000 000 000 000 000 000 000 -99 -99 000 000 000 000 000 000 000 -99 000 000 000 000 000 000 000 000 000 000 000
000 000 000 000 000 000 000 000 000 000 -99 -99 000 000 000 000 000 -99 -99 000 000 -99 000 000 000 000 000 000 000 000 000
000 000 -99 000 000 000 -99 000 000 000 -99 -99 000 000 000 000 000 -99 000 000 000 000 000 -99 000 000 000 000 000 000 -99
000 000 -99 000 000 -99 000 000 000 000 -99 -99 000 000 000 000 000 -99 000 000 000 000 -99 -99 000 000 000 000 000 000 000
000 -99 -99 000 000 000 000 000 000 -99 -99 000 000 000 000 000 000 000 -99 000 000 000 -99 000 000 000 000 000 000 000 000
000 -99 -99 000 000 000 -99 000 000 -99 -99 -99 000 000 000 000 000 -99 -99 -99 000 000 -99 000 000 000 000 000 000 000 -99
000 -99 000 000 000 000 -99 -99 -99 -99 -99 -99 000 000 000 000 000 000 -99 -99 -99 -99 -99 000 000 -99 -99 000 000 000 -99
-99 -99 000 000 000 000 -99 -99 -99 -99 000 000 000 000 000 000 000 000 000 000 -99 -99 -99 -99 000 000 000 -99 000 -99 -99
000 000 000 000 000 -99 000 -99 -99 000 000 000 000 000 000 000 000 000 000 000 -99 -99 -99 -99 000 000 000 000 -99 000 -99
-99 -99 -99 -99 -99 000 -99 -99 -99 000 000 000 000 000 000 000 000 000 000 000 000 000 -99 -99 000 000 000 000 -99 -99 -99
000 -99 -99 -99 -99 000 -99 -99 -99 000 000 000 000 000 000 000 000 000 000 000 000 000 -99 000 000 000 000 001 -99 -99 -99
000 000 -99 -99 000 000 -99 -99 -99 -99 000 000 000 -99 000 -99 000 000 000 000 000 -99 -99 000 000 000 000 000 -99 -99 -99
000 -99 -99 -99 000 000 -99 -99 -99 000 000 000 000 -99 000 -99 000 000 000 000 -99 -99 000 000 000 000 000 000 -99 -99 -99
000 -99 -99 -99 -99 001 -99 -99 -99 -99 -99 000 -99 000 000 -99 -99 -99 000 000 -99 -99 000 000 000 000 -99 -99 -99 -99 -99
-99 -99 -99 -99 -99 -99 -99 -99 -99 -99 -99 -99 000 000 000 -99 -99 -99 -99 -99 -99 000 000 000 000 000 -99 -99 -99 -99 -99
-99 -99 -99 -99 -99 -99 -99 -99 -99 -99 -99 -99 -99 000 -99 -99 -99 000 000 -99 -99 000 000 000 000 000 -99 000 -99 -99 -99
-99 -99 -99 -99 -99 -99 -99 -99 -99 -99 -99 000 000 -99 -99 -99 000 000 000 -99 000 000 000 000 001 000 -99 000 000 -99 -99
-99 -99 -99 -99 -99 -99 -99 -99 -99 000 -99 -99 -99 -99 -99 -99 000 000 000 000 000 000 -99 000 000 000 000 -99 000 -99 -99
-99 -99 -99 -99 -99 -99 -99 -99 -99 -99 000 -99 -99 -99 -99 000 000 000 000 000 000 -99 001 000 000 -99 -99 -99 -99 -99 -99
-99 -99 -99 -99 -99 -99 -99 -99 -99 -99 -99 -99 -99 -99 000 000 000 000 000 -99 000 -99 -99 -99 -99 -99 -99 -99 -99 -99 -99
-99 -99 -99 -99 -99 -99 -99 -99 -99 -99 -99 -99 -99 000 000 000 000 000 000 -99 -99 -99 -99 -99 -99 -99 -99 -99 -99 -99 -99
-99 -99 -99 -99 -99 -99 -99 -99 -99 -99 -99 -99 -99 000 000 000 000 000 -99 -99 -99 -99 -99 -99 -99 -99 -99 -99 -99 -99 -99
